Instance: E151-12b.dat
Class:  2
  150 --- number of customers (no depot)
   29 --- number of vehicles
  225 --- number of items
Capacity - height - width of vehicles
   200     40     20
Node - x - y - demand
    0    35.0    35.0     0.0
    1    41.0    49.0    10.0
    2    35.0    17.0     7.0
    3    55.0    45.0    13.0
    4    55.0    20.0    19.0
    5    15.0    30.0    26.0
    6    25.0    30.0     3.0
    7    20.0    50.0     5.0
    8    10.0    43.0     9.0
    9    55.0    60.0    16.0
   10    30.0    60.0    16.0
   11    20.0    65.0    12.0
   12    50.0    35.0    19.0
   13    30.0    25.0    23.0
   14    15.0    10.0    20.0
   15    30.0     5.0     8.0
   16    10.0    20.0    19.0
   17     5.0    30.0     2.0
   18    20.0    40.0    12.0
   19    15.0    60.0    17.0
   20    45.0    65.0     9.0
   21    45.0    20.0    11.0
   22    45.0    10.0    18.0
   23    55.0     5.0    29.0
   24    65.0    35.0     3.0
   25    65.0    20.0     6.0
   26    45.0    30.0    17.0
   27    35.0    40.0    16.0
   28    41.0    37.0    16.0
   29    64.0    42.0     9.0
   30    40.0    60.0    21.0
   31    31.0    52.0    27.0
   32    35.0    69.0    23.0
   33    53.0    52.0    11.0
   34    65.0    55.0    14.0
   35    63.0    65.0     8.0
   36     2.0    60.0     5.0
   37    20.0    20.0     8.0
   38     5.0     5.0    16.0
   39    60.0    12.0    31.0
   40    40.0    25.0     9.0
   41    42.0     7.0     5.0
   42    24.0    12.0     5.0
   43    23.0     3.0     7.0
   44    11.0    14.0    18.0
   45     6.0    38.0    16.0
   46     2.0    48.0     1.0
   47     8.0    56.0    27.0
   48    13.0    52.0    36.0
   49     6.0    68.0    30.0
   50    47.0    47.0    13.0
   51    49.0    58.0    10.0
   52    27.0    43.0     9.0
   53    37.0    31.0    14.0
   54    57.0    29.0    18.0
   55    63.0    23.0     2.0
   56    53.0    12.0     6.0
   57    32.0    12.0     7.0
   58    36.0    26.0    18.0
   59    21.0    24.0    28.0
   60    17.0    34.0     3.0
   61    12.0    24.0    13.0
   62    24.0    58.0    19.0
   63    27.0    69.0    10.0
   64    15.0    77.0     9.0
   65    62.0    77.0    20.0
   66    49.0    73.0    25.0
   67    67.0     5.0    25.0
   68    56.0    39.0    36.0
   69    37.0    47.0     6.0
   70    37.0    56.0     5.0
   71    57.0    68.0    15.0
   72    47.0    16.0    25.0
   73    44.0    17.0     9.0
   74    46.0    13.0     8.0
   75    49.0    11.0    18.0
   76    49.0    42.0    13.0
   77    53.0    43.0    14.0
   78    61.0    52.0     3.0
   79    57.0    48.0    23.0
   80    56.0    37.0     6.0
   81    55.0    54.0    26.0
   82    15.0    47.0    16.0
   83    14.0    37.0    11.0
   84    11.0    31.0     7.0
   85    16.0    22.0    41.0
   86     4.0    18.0    35.0
   87    28.0    18.0    26.0
   88    26.0    52.0     9.0
   89    26.0    35.0    15.0
   90    31.0    67.0     3.0
   91    15.0    19.0     1.0
   92    22.0    22.0     2.0
   93    18.0    24.0    22.0
   94    26.0    27.0    27.0
   95    25.0    24.0    20.0
   96    22.0    27.0    11.0
   97    25.0    21.0    12.0
   98    19.0    21.0    10.0
   99    20.0    26.0     9.0
  100    18.0    18.0    17.0
  101    37.0    52.0     7.0
  102    49.0    49.0    30.0
  103    52.0    64.0    16.0
  104    20.0    26.0     9.0
  105    40.0    30.0    21.0
  106    21.0    47.0    15.0
  107    17.0    63.0    19.0
  108    31.0    62.0    23.0
  109    52.0    33.0    11.0
  110    51.0    21.0     5.0
  111    42.0    41.0    19.0
  112    31.0    32.0    29.0
  113     5.0    25.0    23.0
  114    12.0    42.0    21.0
  115    36.0    16.0    10.0
  116    52.0    41.0    15.0
  117    27.0    23.0     3.0
  118    17.0    33.0    41.0
  119    13.0    13.0     9.0
  120    57.0    58.0    28.0
  121    62.0    42.0     8.0
  122    42.0    57.0     8.0
  123    16.0    57.0    16.0
  124     8.0    52.0    10.0
  125     7.0    38.0    28.0
  126    27.0    68.0     7.0
  127    30.0    48.0    15.0
  128    43.0    67.0    14.0
  129    58.0    48.0     6.0
  130    58.0    27.0    19.0
  131    37.0    69.0    11.0
  132    38.0    46.0    12.0
  133    46.0    10.0    23.0
  134    61.0    33.0    26.0
  135    62.0    63.0    17.0
  136    63.0    69.0     6.0
  137    32.0    22.0     9.0
  138    45.0    35.0    15.0
  139    59.0    15.0    14.0
  140     5.0     6.0     7.0
  141    10.0    17.0    27.0
  142    21.0    10.0    13.0
  143     5.0    64.0    11.0
  144    30.0    15.0    16.0
  145    39.0    10.0    10.0
  146    32.0    39.0     5.0
  147    25.0    32.0    25.0
  148    25.0    55.0    17.0
  149    48.0    28.0    18.0
  150    56.0    37.0    10.0
Node - number of items - h - w for each item
    0   0
    1   1   25    4
    2   1   19    3
    3   1   17    9
    4   1    7   13
    5   1   10    7
    6   1   31    4
    7   2    5   15    7   13
    8   1   16    5
    9   2    6   11    9    8
   10   1    5   16
   11   1   24    2
   12   2    6   17   19    3
   13   2    5    8   26    4
   14   2    5   14   12    8
   15   2    7   15   13    6
   16   2    5   18    4   15
   17   2    9    9   13    8
   18   1    6   16
   19   1   36    4
   20   2   12    5   27    3
   21   1    7   10
   22   1    5   15
   23   2    8   14   20    3
   24   2   17    6   32    3
   25   1    6    9
   26   2   16   10    6   10
   27   1   29    2
   28   1    8   15
   29   2   12    6   31    3
   30   2    6   13   27    2
   31   2   17    5   33    2
   32   2    7   12   34    4
   33   1    5   14
   34   2    9    5   26    3
   35   1   22    3
   36   2   14    8   10    6
   37   1   25    3
   38   1   35    3
   39   2   20    4   22    3
   40   1   21    3
   41   1   18    4
   42   2    9    9    7    9
   43   1   10    7
   44   1   20    3
   45   2    6   15    5   13
   46   1   27    3
   47   1   31    3
   48   2   19    5   18    5
   49   1   20    9
   50   2    8    9   33    3
   51   1   19    3
   52   1   18    8
   53   2   32    4   16    4
   54   1   10    8
   55   1    5   10
   56   1    7   17
   57   1   22    3
   58   2   18    9   14    9
   59   1   17    3
   60   1   29    3
   61   2   13    5   16    4
   62   1   26    4
   63   2    6   10   33    3
   64   1   30    4
   65   2   13    6   24    4
   66   1    8    8
   67   2   18    4   31    2
   68   2    9    9   21    3
   69   1   19    6
   70   1   17    8
   71   1    7   13
   72   1   23    3
   73   2    6   10   11    8
   74   2   13    6   20    4
   75   2    7   13   18    4
   76   1   33    2
   77   2    7   15   16    2
   78   2   35    4   30    4
   79   1   24    4
   80   2   11    7   24    3
   81   2    4   15   13    8
   82   2   19    7   19    4
   83   1    4   12
   84   2   14    8   29    4
   85   2    5   18    4   15
   86   2    6   16   24    3
   87   1   13    7
   88   2   16    7   34    4
   89   2    6   15   20    5
   90   1    5   13
   91   1   19    9
   92   2    6   14   26    3
   93   1   24    3
   94   1   20    4
   95   1   18   10
   96   1   30    4
   97   1    5   10
   98   2    4   10   13    8
   99   1   17    4
  100   1    5    9
  101   2   13    8   34    3
  102   2   19    9    8    8
  103   1   33    2
  104   1    6   14
  105   2    5   11    8    4
  106   2    9    8   17    4
  107   2    5   18   26    2
  108   1   29    3
  109   1   11    9
  110   2   16    5   17    4
  111   1   28    2
  112   1   33    3
  113   2    8   13   34    3
  114   2    8    9   11    7
  115   2    7   16    8   13
  116   2   14   10   18    3
  117   1    5   18
  118   1   12    8
  119   1   22    2
  120   2   18    9   18    6
  121   1   20    4
  122   1    6   16
  123   1    5    9
  124   2    5   11   10    8
  125   2   11    9   35    3
  126   2   12    6   16    5
  127   2   18   10   21    4
  128   2   18    9    8    9
  129   2   26    3   22    3
  130   2   15    8   19    4
  131   1    8   18
  132   2    6   11   33    3
  133   2   32    3   29    3
  134   2    4   11   14    8
  135   2    7   12    5   12
  136   1   24    3
  137   2   13    8   26    3
  138   1   12    5
  139   2    7   11    6   10
  140   2    7   17    4   15
  141   1   29    2
  142   2    6   12    6    8
  143   2    5   15    8   12
  144   1   10    7
  145   1   13    7
  146   1    7   11
  147   1    4   15
  148   2    5   12   23    4
  149   2    6    9   22    4
  150   2   10    9   13    5
